
  12    4
  10   10   10   10

   0   0   0   0   0   3 2 3 4 
   6  10  10  10  10   4 11 9 8 5 
   9  10  10  10  10   4 11 8 6 5 
   2  10  10  10  10   1 5 
   6  10  10  10  10   1 7 
   8  10  10  10  10   1 7 
   6  10  10  10  10   1 10 
   2  10  10  10  10   1 10 
   7  10  10  10  10   1 10 
   1  10  10  10  10   1 12
   5  10  10  10  10   1 12
   0   0   0   0   0   0 
